3 5
141 101 166 
0 16 18 27 37 59 55 22 42 7 48 51 13 1
1 71 79 10 13 65 56 10 30 82 19 98 85 3
2 44 41 19 11 83 82 16 84 43 15 80 51 2
3 47 46 91 100 42 47 83 50 2 15 64 67 3
4 99 99 45 41 91 92 18 21 84 32 88 76 1
